29 43 141 50 126 44 41 9 26 93 51 131 13 97 47 178 156 14 108 87 104 143 105 2 8 72 17 173 18 101 129 176 20 102 16 91 195 142 79 59 154 150 123 155 187 153 23 45 146 27 71 189 46 111 56 130 74 157 107 32 4 99 185 52 68 179 159 85 10 184 190 169 140 164 78 172 188 165 174 75 121 198 158 22 171 199 100 38 139 31 19 122 48 194 0 24 49 36 69 117 65 128 70 145 152 168 127 63 98 193 106 116 88 34 55 7 170 95 125 148 37 147 77 163 90 149 33 82 73 83 21 132 183 115 11 53 28 110 112 109 81 166 5 1 6 118 182 120 196 138 192 144 103 175 3 94 162 57 96 12 197 42 167 86 186 177 136 30 66 64 119 15 76 181 137 89 40 35 114 161 25 92 180 135 160 84 62 61 80 39 133 191 124 151 113 58 54 134 60 67  
29 43 141 50 126 44 41 9 26 93 51 131 13 97 47 178 156 14 88 87 104 105 174 2 8 72 17 173 18 101 129 176 20 102 16 91 195 142 79 59 154 150 123 155 187 56 23 45 146 27 71 189 46 111 153 130 74 192 107 32 4 99 185 52 68 179 159 85 10 184 190 169 140 164 172 188 158 22 116 100 125 139 31 77 122 7 0 24 49 36 69 170 117 65 128 70 145 152 168 127 63 98 193 106 38 148 34 37 147 55 82 95 149 33 199 163 73 83 21 108 165 198 194 132 138 177 115 167 161 11 58 28 110 112 109 81 166 5 1 6 118 182 120 196 183 186 157 136 103 175 3 94 53 90 143 162 96 57 19 12 197 42 144 121 30 66 64 119 15 171 76 181 137 89 40 35 114 86 25 92 180 135 160 84 62 61 80 75 39 133 191 124 113 48 54 78 151 134 60 67  
130 43 141 50 126 44 41 9 26 93 51 131 13 97 47 178 156 14 167 87 104 143 105 174 2 8 72 17 173 18 101 129 176 20 102 16 91 195 142 79 59 154 150 123 155 187 56 23 45 146 27 71 189 46 111 153 29 74 192 107 32 4 99 185 52 68 179 159 85 10 6 190 169 140 164 172 188 158 22 116 100 125 139 31 77 122 7 0 24 49 36 69 170 117 65 128 70 145 152 168 127 63 98 193 106 38 148 34 37 147 55 82 95 149 33 199 163 73 83 21 108 165 198 194 132 138 177 115 88 161 11 58 28 110 112 109 81 166 5 1 184 118 182 120 196 183 186 157 136 103 175 3 94 78 90 162 96 57 19 12 197 42 144 121 30 66 64 119 15 171 76 181 137 89 40 35 114 86 25 92 180 135 160 84 62 61 80 75 39 133 191 124 113 48 54 53 151 134 60 67  
29 176 141 50 126 44 41 9 26 93 51 131 13 97 47 178 156 14 108 87 104 143 105 170 2 8 72 173 101 20 43 129 102 16 18 91 195 142 79 59 154 17 150 123 155 187 153 23 45 146 27 71 189 46 111 56 130 74 157 107 32 4 99 185 52 68 179 159 85 10 184 190 169 140 164 78 172 188 165 174 75 121 198 158 22 100 125 139 31 61 19 122 194 0 24 49 36 69 117 65 39 128 70 145 152 168 127 63 98 193 106 37 147 77 163 95 149 33 199 82 73 83 21 132 138 177 115 11 58 28 110 112 109 34 89 191 151 81 166 5 1 6 40 88 38 148 48 196 183 116 55 67 186 120 3 12 197 175 94 90 162 96 57 42 144 182 30 66 64 119 171 76 137 86 181 167 118 35 114 15 62 161 192 160 103 25 92 180 135 84 136 7 80 124 133 113 53 54 134 60  
29 43 141 50 126 44 41 9 26 93 51 131 13 97 47 178 156 14 108 87 104 143 105 2 8 72 17 173 18 101 129 176 20 102 16 91 195 142 79 59 154 150 123 155 187 153 23 45 146 27 71 189 46 111 56 130 74 157 107 32 4 99 185 52 68 179 159 85 10 184 190 169 140 109 78 172 188 165 174 199 198 158 22 100 125 139 31 19 116 88 34 55 122 7 194 24 0 49 36 69 170 117 65 128 70 145 152 168 127 63 98 193 38 148 37 147 77 163 95 149 33 90 82 73 83 21 132 183 115 11 106 53 28 110 112 164 81 166 5 1 6 118 182 120 196 138 192 144 162 175 3 94 103 57 96 12 197 42 167 86 186 177 136 121 30 66 64 119 15 171 76 181 137 151 40 35 114 161 25 92 180 135 160 84 62 61 80 75 39 133 191 124 89 48 113 58 54 134 60 67  
29 176 141 50 126 44 41 9 26 93 51 131 13 97 47 178 156 14 108 87 161 143 105 170 168 2 8 72 173 101 20 43 129 102 16 18 91 195 142 79 59 154 17 150 123 155 187 153 23 45 146 27 71 189 46 111 56 130 74 157 107 32 4 99 185 52 68 179 159 85 10 184 190 169 140 164 78 172 188 165 174 75 121 198 158 22 100 125 139 31 61 19 122 194 144 24 49 36 69 117 65 39 128 70 145 104 152 127 63 98 193 106 37 147 83 163 95 149 33 199 82 73 77 21 132 138 177 115 11 58 28 110 112 109 34 89 191 151 81 166 5 1 6 40 182 38 148 48 196 183 116 55 67 186 120 3 12 197 175 94 90 162 96 57 42 0 88 30 66 64 119 171 76 137 86 181 167 118 35 114 15 62 192 160 103 25 92 180 135 84 136 7 80 124 133 113 53 54 134 60  
29 176 141 50 126 44 41 9 26 93 51 131 13 97 47 178 156 14 108 87 104 143 105 170 2 8 72 173 101 20 43 129 102 16 18 91 195 142 79 59 154 17 150 123 155 187 153 23 45 146 27 71 189 46 111 56 130 74 157 107 32 4 99 185 52 68 179 159 85 10 184 190 169 140 164 78 172 188 165 174 75 121 198 158 22 100 125 139 31 61 19 122 194 0 24 49 36 69 117 65 39 128 70 145 152 168 127 63 98 193 106 37 147 62 163 95 149 33 199 82 73 83 21 132 138 177 115 11 182 28 110 112 109 34 89 191 151 81 166 5 1 6 40 58 38 148 48 196 183 116 55 67 186 120 3 12 197 175 94 90 119 162 96 57 42 144 88 30 66 64 171 76 137 86 192 167 118 35 114 15 77 161 181 160 103 25 92 180 135 84 136 7 80 124 133 113 53 54 134 60  
29 176 141 50 126 44 41 9 26 93 51 131 13 97 47 178 156 14 108 87 104 143 105 170 2 8 72 173 101 20 43 129 102 16 18 91 195 142 79 59 154 17 150 123 155 187 153 23 45 146 27 71 189 46 111 56 130 74 157 107 32 4 99 185 52 68 179 159 85 10 184 190 169 140 164 78 172 188 165 174 75 121 198 158 22 100 125 139 31 61 19 122 194 24 49 36 69 117 65 39 128 70 145 152 168 127 114 98 193 106 37 147 77 163 95 149 33 199 82 73 83 21 138 177 115 11 132 183 58 28 110 112 109 34 89 191 151 81 166 5 1 6 40 182 38 148 48 196 62 116 55 67 186 120 3 12 197 175 94 90 162 96 57 42 144 88 30 66 64 119 171 76 137 86 181 167 15 35 63 118 161 192 160 103 0 25 92 180 135 84 136 7 80 124 133 113 53 54 134 60  
130 43 141 50 126 44 41 9 26 93 51 131 13 97 47 178 156 14 167 87 104 143 105 174 2 8 72 17 173 18 101 129 176 20 102 16 91 195 142 79 59 154 150 123 155 187 56 23 45 146 27 71 189 46 111 153 29 74 192 107 32 4 99 185 52 68 179 159 85 10 184 190 169 140 164 172 188 158 22 100 116 125 139 31 77 122 7 0 24 49 36 69 170 117 65 128 70 145 152 168 127 63 98 193 106 38 148 34 37 147 55 82 95 149 33 199 163 73 83 21 108 165 198 194 132 138 177 115 88 161 11 58 28 110 112 109 81 166 5 1 6 118 182 120 196 183 186 157 136 103 175 3 94 53 90 162 96 57 78 19 12 197 42 144 121 30 66 64 119 15 171 76 181 137 89 40 35 114 86 25 92 180 135 160 84 62 61 80 75 39 133 191 124 113 48 54 151 134 60 67  
29 176 141 50 126 44 41 9 26 93 51 131 13 97 47 178 156 14 108 87 104 143 105 170 2 8 72 173 101 20 43 129 102 16 138 195 142 79 139 59 154 150 123 155 187 153 23 45 146 27 71 189 46 111 56 130 74 157 107 32 4 99 185 52 68 179 159 85 10 184 190 169 140 164 78 172 188 165 174 75 199 198 158 22 100 125 31 122 7 0 80 49 36 69 117 65 17 70 145 152 168 127 63 98 193 106 89 148 77 48 6 53 34 37 147 55 82 95 149 33 161 58 73 83 61 132 91 115 11 163 28 110 112 109 177 67 1 194 81 196 118 186 120 92 3 12 197 175 166 5 19 121 15 84 116 24 128 94 90 162 96 57 42 144 88 30 66 64 119 171 76 137 86 181 167 40 21 18 183 151 103 136 38 35 114 25 192 180 135 160 62 39 133 191 124 113 54 182 134 60  
29 176 141 50 126 44 41 9 26 93 51 131 13 97 47 178 156 14 108 87 104 143 105 170 2 8 72 173 101 20 43 129 102 16 138 195 142 79 139 59 154 150 123 155 187 153 23 45 146 27 71 189 46 111 56 130 74 157 107 32 4 99 185 52 68 179 159 85 10 184 190 169 140 164 78 172 188 165 174 75 199 198 158 22 100 125 31 122 7 0 80 49 36 69 117 65 17 70 145 152 168 127 63 98 193 106 89 148 77 48 6 53 34 37 147 55 82 95 149 33 161 58 73 83 61 132 91 115 11 163 28 110 112 109 177 67 194 1 81 196 118 186 120 92 3 12 197 175 166 5 19 121 15 84 116 24 128 94 90 162 96 57 42 144 88 30 66 64 119 171 76 137 86 181 167 40 21 18 183 151 103 136 38 35 114 25 192 180 135 160 62 39 133 191 124 113 54 182 134 60  
29 176 141 50 126 44 41 9 26 93 11 131 13 97 47 178 156 14 108 104 87 143 105 170 2 8 72 173 101 20 43 129 102 16 18 91 195 142 79 59 154 17 150 123 155 187 153 23 45 146 27 71 189 46 111 56 130 74 157 107 32 4 99 185 52 68 179 159 85 10 184 190 169 140 164 78 172 188 165 174 75 121 198 158 22 100 125 139 31 61 19 122 194 0 24 49 36 69 117 65 128 70 145 152 168 127 63 98 193 106 37 147 77 163 95 149 33 199 82 73 83 21 132 138 177 115 51 58 28 110 112 109 34 89 151 81 166 5 1 6 40 38 148 48 196 183 116 55 67 186 120 3 12 197 175 90 162 96 80 57 42 144 88 30 66 64 119 171 76 137 86 192 167 118 35 114 15 161 181 103 25 92 180 135 84 136 7 94 53 160 62 39 133 191 124 113 54 182 134 60  
